solution status: optimal solution found
objective value:                              3128900
L$A#2                                               6 	(obj:3700)
L$A#6                                               5 	(obj:3700)
L$A#10                                              6 	(obj:3700)
L$A#11                                              3 	(obj:3700)
L$A#12                                              2 	(obj:3700)
L$A#13                                             12 	(obj:3700)
L$A#14                                             12 	(obj:3700)
L$A#16                                             12 	(obj:3700)
L$A#18                                              6 	(obj:3700)
L$A#19                                              6 	(obj:3700)
L$A#21                                             12 	(obj:3700)
L$A#22                                              6 	(obj:3700)
L$A#23                                              3 	(obj:3700)
L$A#24                                              2 	(obj:3700)
L$B#1                                              12 	(obj:3700)
L$B#2                                              12 	(obj:3700)
L$B#3                                              12 	(obj:3700)
L$B#4                                              12 	(obj:3700)
L$B#5                                              12 	(obj:3700)
L$B#6                                              11 	(obj:3700)
L$B#7                                              12 	(obj:3700)
L$B#8                                               6 	(obj:3700)
L$B#9                                              12 	(obj:3700)
L$B#10                                              6 	(obj:3700)
L$B#11                                              4 	(obj:3700)
L$B#12                                              3 	(obj:3700)
L$B#13                                             12 	(obj:3700)
L$B#14                                             12 	(obj:3700)
L$B#15                                             12 	(obj:3700)
L$B#16                                             12 	(obj:3700)
L$B#18                                             12 	(obj:3700)
L$B#19                                             12 	(obj:3700)
L$B#20                                             12 	(obj:3700)
L$B#21                                             12 	(obj:3700)
L$B#22                                              6 	(obj:3700)
L$B#23                                              6 	(obj:3700)
L$C#1                                               6 	(obj:3700)
L$C#4                                               6 	(obj:3700)
L$C#6                                               2 	(obj:3700)
L$C#7                                               9 	(obj:3700)
L$C#8                                              12 	(obj:3700)
L$C#9                                               6 	(obj:3700)
L$C#10                                              3 	(obj:3700)
L$C#11                                              4 	(obj:3700)
L$C#12                                             12 	(obj:3700)
L$C#13                                              4 	(obj:3700)
L$C#17                                             12 	(obj:3700)
L$C#20                                              6 	(obj:3700)
L$C#21                                              6 	(obj:3700)
L$C#22                                              4 	(obj:3700)
L$C#24                                              1 	(obj:3700)
L$D#2                                              12 	(obj:3700)
L$D#3                                              12 	(obj:3700)
L$D#4                                              12 	(obj:3700)
L$D#5                                               6 	(obj:3700)
L$D#9                                               7 	(obj:3700)
L$D#10                                              3 	(obj:3700)
L$D#11                                              7 	(obj:3700)
L$D#15                                             12 	(obj:3700)
L$D#17                                              6 	(obj:3700)
L$D#22                                              3 	(obj:3700)
L$D#23                                              2 	(obj:3700)
L$D#24                                              1 	(obj:3700)
L$E#1                                              12 	(obj:3700)
L$E#3                                               6 	(obj:3700)
L$E#5                                              12 	(obj:3700)
L$E#6                                              12 	(obj:3700)
L$E#7                                               9 	(obj:3700)
L$E#8                                              12 	(obj:3700)
L$E#9                                               5 	(obj:3700)
L$E#10                                              9 	(obj:3700)
L$E#11                                             12 	(obj:3700)
L$E#12                                             12 	(obj:3700)
L$E#17                                             12 	(obj:3700)
L$E#18                                             12 	(obj:3700)
L$E#19                                             12 	(obj:3700)
L$E#20                                             12 	(obj:3700)
L$E#22                                              7 	(obj:3700)
L$E#23                                              4 	(obj:3700)
L$E#24                                              2 	(obj:3700)
S$A#1                                              95 	(obj:0)
S$A#2                                             130 	(obj:0)
S$A#3                                             100 	(obj:0)
S$A#4                                              60 	(obj:0)
S$A#7                                              20 	(obj:0)
S$A#8                                               5 	(obj:0)
S$A#13                                            100 	(obj:0)
S$A#14                                            195 	(obj:0)
S$A#15                                            165 	(obj:0)
S$A#16                                            245 	(obj:0)
S$A#17                                            185 	(obj:0)
S$A#18                                            220 	(obj:0)
S$A#19                                            100 	(obj:0)
S$B#1                                              90 	(obj:0)
S$B#2                                             170 	(obj:0)
S$B#3                                             250 	(obj:0)
S$B#4                                             325 	(obj:0)
S$B#5                                             355 	(obj:0)
S$B#6                                             325 	(obj:0)
S$B#7                                             235 	(obj:0)
S$B#8                                              50 	(obj:0)
S$B#12                                              5 	(obj:0)
S$B#13                                             95 	(obj:0)
S$B#14                                            175 	(obj:0)
S$B#15                                            255 	(obj:0)
S$B#16                                            330 	(obj:0)
S$B#17                                            240 	(obj:0)
S$B#18                                            275 	(obj:0)
S$B#19                                            185 	(obj:0)
S$B#20                                             55 	(obj:0)
S$B#21                                              5 	(obj:0)
S$B#22                                              5 	(obj:0)
S$B#23                                             25 	(obj:0)
S$C#1                                              50 	(obj:0)
S$C#2                                              35 	(obj:0)
S$C#3                                              20 	(obj:0)
S$C#4                                              60 	(obj:0)
S$C#5                                              30 	(obj:0)
S$C#8                                              15 	(obj:0)
S$C#11                                             25 	(obj:0)
S$C#12                                            135 	(obj:0)
S$C#13                                            165 	(obj:0)
S$C#14                                            150 	(obj:0)
S$C#15                                            135 	(obj:0)
S$C#16                                            115 	(obj:0)
S$C#17                                            205 	(obj:0)
S$C#18                                            155 	(obj:0)
S$C#19                                             65 	(obj:0)
S$C#20                                             20 	(obj:0)
S$C#21                                              5 	(obj:0)
S$C#22                                             15 	(obj:0)
S$D#2                                             100 	(obj:0)
S$D#3                                             200 	(obj:0)
S$D#4                                             300 	(obj:0)
S$D#5                                             315 	(obj:0)
S$D#6                                             245 	(obj:0)
S$D#7                                             140 	(obj:0)
S$D#8                                              15 	(obj:0)
S$D#11                                             50 	(obj:0)
S$D#12                                             35 	(obj:0)
S$D#13                                             20 	(obj:0)
S$D#15                                            100 	(obj:0)
S$D#16                                             80 	(obj:0)
S$D#17                                             95 	(obj:0)
S$D#18                                             25 	(obj:0)
S$D#19                                            120 	(obj:0)
S$D#20                                             85 	(obj:0)
S$E#1                                             120 	(obj:0)
S$E#2                                             105 	(obj:0)
S$E#3                                             145 	(obj:0)
S$E#4                                             120 	(obj:0)
S$E#5                                             170 	(obj:0)
S$E#6                                             190 	(obj:0)
S$E#7                                             130 	(obj:0)
S$E#8                                              90 	(obj:0)
S$E#10                                             20 	(obj:0)
S$E#11                                            100 	(obj:0)
S$E#12                                            200 	(obj:0)
S$E#13                                            185 	(obj:0)
S$E#14                                            170 	(obj:0)
S$E#15                                            150 	(obj:0)
S$E#16                                            125 	(obj:0)
S$E#17                                            175 	(obj:0)
S$E#18                                            210 	(obj:0)
S$E#19                                            180 	(obj:0)
S$E#20                                            140 	(obj:0)
U$A#2                                              60 	(obj:0)
U$A#6                                              50 	(obj:0)
U$A#10                                             60 	(obj:0)
U$A#11                                             30 	(obj:0)
U$A#12                                             20 	(obj:0)
U$A#13                                            120 	(obj:0)
U$A#14                                            120 	(obj:0)
U$A#16                                            120 	(obj:0)
U$A#18                                             60 	(obj:0)
U$A#19                                             60 	(obj:0)
U$A#21                                            120 	(obj:0)
U$A#22                                             60 	(obj:0)
U$A#23                                             30 	(obj:0)
U$A#24                                             20 	(obj:0)
U$B#1                                             120 	(obj:0)
U$B#2                                             120 	(obj:0)
U$B#3                                             120 	(obj:0)
U$B#4                                             120 	(obj:0)
U$B#5                                             120 	(obj:0)
U$B#6                                             110 	(obj:0)
U$B#7                                             120 	(obj:0)
U$B#8                                              60 	(obj:0)
U$B#9                                             120 	(obj:0)
U$B#10                                             60 	(obj:0)
U$B#11                                             40 	(obj:0)
U$B#12                                             30 	(obj:0)
U$B#13                                            120 	(obj:0)
U$B#14                                            120 	(obj:0)
U$B#15                                            120 	(obj:0)
U$B#16                                            120 	(obj:0)
U$B#18                                            120 	(obj:0)
U$B#19                                            120 	(obj:0)
U$B#20                                            120 	(obj:0)
U$B#21                                            120 	(obj:0)
U$B#22                                             60 	(obj:0)
U$B#23                                             60 	(obj:0)
U$C#1                                              60 	(obj:0)
U$C#4                                              60 	(obj:0)
U$C#6                                              20 	(obj:0)
U$C#7                                              90 	(obj:0)
U$C#8                                             120 	(obj:0)
U$C#9                                              60 	(obj:0)
U$C#10                                             30 	(obj:0)
U$C#11                                             40 	(obj:0)
U$C#12                                            120 	(obj:0)
U$C#13                                             40 	(obj:0)
U$C#17                                            120 	(obj:0)
U$C#20                                             60 	(obj:0)
U$C#21                                             60 	(obj:0)
U$C#22                                             40 	(obj:0)
U$C#24                                             10 	(obj:0)
U$D#2                                             120 	(obj:0)
U$D#3                                             120 	(obj:0)
U$D#4                                             120 	(obj:0)
U$D#5                                              60 	(obj:0)
U$D#9                                              70 	(obj:0)
U$D#10                                             30 	(obj:0)
U$D#11                                             70 	(obj:0)
U$D#15                                            120 	(obj:0)
U$D#17                                             60 	(obj:0)
U$D#22                                             30 	(obj:0)
U$D#23                                             20 	(obj:0)
U$D#24                                             10 	(obj:0)
U$E#1                                             120 	(obj:0)
U$E#3                                              60 	(obj:0)
U$E#5                                             120 	(obj:0)
U$E#6                                             120 	(obj:0)
U$E#7                                              90 	(obj:0)
U$E#8                                             120 	(obj:0)
U$E#9                                              50 	(obj:0)
U$E#10                                             90 	(obj:0)
U$E#11                                            120 	(obj:0)
U$E#12                                            120 	(obj:0)
U$E#17                                            120 	(obj:0)
U$E#18                                            120 	(obj:0)
U$E#19                                            120 	(obj:0)
U$E#20                                            120 	(obj:0)
U$E#22                                             70 	(obj:0)
U$E#23                                             40 	(obj:0)
U$E#24                                             20 	(obj:0)
F$A#1                                             115 	(obj:540)
F$A#6                                              50 	(obj:540)
F$A#7                                             200 	(obj:540)
F$A#8                                             195 	(obj:540)
F$A#9                                             145 	(obj:540)
F$A#18                                             75 	(obj:540)
F$A#20                                            110 	(obj:540)
F$A#21                                             30 	(obj:540)
F$B#8                                               5 	(obj:540)
F$B#18                                             55 	(obj:540)
F$D#1                                              15 	(obj:540)
F$D#19                                            200 	(obj:540)
F$D#20                                             90 	(obj:540)
F$D#24                                              5 	(obj:540)
F$E#1                                              15 	(obj:540)
F$E#18                                             15 	(obj:540)
